; DUP1 MLOAD SWAP1 POP SWAP3 POP => MLOAD SWAP3 NOT POP
(set-option :produce-proofs true)
; 
(set-info :status unknown)
(declare-fun storage_t ((_ BitVec 256) (_ BitVec 256) (_ BitVec 256) (_ BitVec 256) (_ BitVec 256) Int (_ BitVec 256)) (_ BitVec 256))
(declare-fun storage_s ((_ BitVec 256) (_ BitVec 256) (_ BitVec 256) (_ BitVec 256) (_ BitVec 256) Int (_ BitVec 256)) (_ BitVec 256))
(declare-fun exc_halt_t (Int) Bool)
(declare-fun exc_halt_s (Int) Bool)
(declare-fun stack_t ((_ BitVec 256) (_ BitVec 256) (_ BitVec 256) (_ BitVec 256) (_ BitVec 256) Int (_ BitVec 6)) (_ BitVec 256))
(declare-fun stack_s ((_ BitVec 256) (_ BitVec 256) (_ BitVec 256) (_ BitVec 256) (_ BitVec 256) Int (_ BitVec 6)) (_ BitVec 256))
(declare-fun sc_t (Int) (_ BitVec 6))
(declare-fun sc_s (Int) (_ BitVec 6))
(declare-fun used_gas_t ((_ BitVec 256) (_ BitVec 256) (_ BitVec 256) (_ BitVec 256) (_ BitVec 256) Int) Int)
(declare-fun used_gas_s ((_ BitVec 256) (_ BitVec 256) (_ BitVec 256) (_ BitVec 256) (_ BitVec 256) Int) Int)
(declare-fun f_MLOAD ((_ BitVec 256) (_ BitVec 256) (_ BitVec 256) (_ BitVec 256) (_ BitVec 256) (_ BitVec 256)) (_ BitVec 256))
(assert
 (exists ((x_0 (_ BitVec 256)) (x_1 (_ BitVec 256)) (x_2 (_ BitVec 256)) (x_3 (_ BitVec 256)) (x_MLOAD_0 (_ BitVec 256)) )(let (($x4148 (forall ((w (_ BitVec 256)) )(let ((?x2319 (storage_t x_0 x_1 x_2 x_3 x_MLOAD_0 4 w)))
 (let ((?x4188 (storage_s x_0 x_1 x_2 x_3 x_MLOAD_0 6 w)))
 (= ?x4188 ?x2319))))
 ))
 (let (($x3723 (exc_halt_t 4)))
 (let (($x772 (exc_halt_s 6)))
 (let (($x9929 (= $x772 $x3723)))
 (let (($x6801 (forall ((n (_ BitVec 6)) )(let ((?x8817 (stack_t x_0 x_1 x_2 x_3 x_MLOAD_0 4 n)))
 (let ((?x2426 (stack_s x_0 x_1 x_2 x_3 x_MLOAD_0 6 n)))
 (let (($x10103 (= ?x2426 ?x8817)))
 (let ((?x3757 (sc_t 4)))
 (let (($x9177 (bvsle ?x3757 n)))
 (or $x9177 $x10103)))))))
 ))
 (let ((?x3757 (sc_t 4)))
 (let ((?x926 (sc_s 6)))
 (let (($x1568 (= ?x926 ?x3757)))
 (let ((?x198 (used_gas_t x_0 x_1 x_2 x_3 x_MLOAD_0 0)))
 (let ((?x10033 (used_gas_s x_0 x_1 x_2 x_3 x_MLOAD_0 0)))
 (let (($x4054 (= ?x10033 ?x198)))
 (let (($x574 (forall ((w (_ BitVec 256)) )(let ((?x3809 (storage_t x_0 x_1 x_2 x_3 x_MLOAD_0 0 w)))
 (let ((?x20 (storage_s x_0 x_1 x_2 x_3 x_MLOAD_0 0 w)))
 (= ?x20 ?x3809))))
 ))
 (let (($x56 (exc_halt_t 0)))
 (let (($x57 (exc_halt_s 0)))
 (let (($x58 (= $x57 $x56)))
 (let (($x2552 (forall ((n (_ BitVec 6)) )(let ((?x3247 (stack_t x_0 x_1 x_2 x_3 x_MLOAD_0 0 n)))
 (let ((?x1681 (stack_s x_0 x_1 x_2 x_3 x_MLOAD_0 0 n)))
 (let (($x6932 (= ?x1681 ?x3247)))
 (let ((?x63 (sc_t 0)))
 (let (($x4861 (bvsle ?x63 n)))
 (or $x4861 $x6932)))))))
 ))
 (let ((?x63 (sc_t 0)))
 (let ((?x72 (sc_s 0)))
 (let (($x73 (= ?x72 ?x63)))
 (let (($x5216 (= $x3723 (or (exc_halt_t 3) (not (bvsle (_ bv0 6) (bvadd (_ bv63 6) (sc_t 3))))))))
 (let (($x6419 (forall ((w (_ BitVec 256)) )(let ((?x7092 (storage_t x_0 x_1 x_2 x_3 x_MLOAD_0 3 w)))
 (let ((?x2319 (storage_t x_0 x_1 x_2 x_3 x_MLOAD_0 4 w)))
 (= ?x2319 ?x7092))))
 ))
 (let (($x1266 (forall ((n (_ BitVec 6)) )(let ((?x7455 (stack_t x_0 x_1 x_2 x_3 x_MLOAD_0 3 n)))
 (let ((?x8817 (stack_t x_0 x_1 x_2 x_3 x_MLOAD_0 4 n)))
 (let ((?x9893 (sc_t 3)))
 (let ((?x9862 (bvadd (_ bv63 6) ?x9893)))
 (let (($x2294 (bvsle ?x9862 n)))
 (or $x2294 (= ?x8817 ?x7455))))))))
 ))
 (let ((?x9893 (sc_t 3)))
 (let ((?x9862 (bvadd (_ bv63 6) ?x9893)))
 (let (($x1435 (= ?x3757 ?x9862)))
 (let (($x40 (= (used_gas_t x_0 x_1 x_2 x_3 x_MLOAD_0 4) (+ 2 (used_gas_t x_0 x_1 x_2 x_3 x_MLOAD_0 3)))))
 (let (($x3892 (exc_halt_t 3)))
 (let (($x6168 (= $x3892 (or (exc_halt_t 2) (not (bvsle (_ bv0 6) (bvadd (_ bv63 6) (sc_t 2))))))))
 (let (($x11399 (forall ((w (_ BitVec 256)) )(let ((?x4030 (storage_t x_0 x_1 x_2 x_3 x_MLOAD_0 2 w)))
 (let ((?x7092 (storage_t x_0 x_1 x_2 x_3 x_MLOAD_0 3 w)))
 (= ?x7092 ?x4030))))
 ))
 (let (($x11028 (forall ((n (_ BitVec 6)) )(let ((?x4056 (sc_t 2)))
 (let ((?x4363 (bvadd (_ bv63 6) ?x4056)))
 (let (($x10573 (bvsle ?x4363 n)))
 (let ((?x157 (stack_t x_0 x_1 x_2 x_3 x_MLOAD_0 2 n)))
 (let ((?x7455 (stack_t x_0 x_1 x_2 x_3 x_MLOAD_0 3 n)))
 (or (= ?x7455 ?x157) $x10573)))))))
 ))
 (let ((?x3589 (used_gas_t x_0 x_1 x_2 x_3 x_MLOAD_0 3)))
 (let ((?x4056 (sc_t 2)))
 (let ((?x4363 (bvadd (_ bv63 6) ?x4056)))
 (let ((?x6705 (stack_t x_0 x_1 x_2 x_3 x_MLOAD_0 2 ?x4363)))
 (let (($x903 (exc_halt_t 2)))
 (let (($x9042 (= $x903 (or (exc_halt_t 1) (not (bvsle (_ bv0 6) (bvadd (_ bv60 6) (sc_t 1))))))))
 (let (($x4043 (forall ((w (_ BitVec 256)) )(let ((?x9696 (storage_t x_0 x_1 x_2 x_3 x_MLOAD_0 1 w)))
 (let ((?x4030 (storage_t x_0 x_1 x_2 x_3 x_MLOAD_0 2 w)))
 (= ?x4030 ?x9696))))
 ))
 (let (($x7376 (forall ((n (_ BitVec 6)) )(let ((?x5563 (stack_t x_0 x_1 x_2 x_3 x_MLOAD_0 1 n)))
 (let ((?x157 (stack_t x_0 x_1 x_2 x_3 x_MLOAD_0 2 n)))
 (or (= ?x157 ?x5563) (bvsle (bvadd (_ bv60 6) (sc_t 1)) n)))))
 ))
 (let ((?x4023 (sc_t 1)))
 (let (($x1388 (= ?x4056 ?x4023)))
 (let ((?x9485 (used_gas_t x_0 x_1 x_2 x_3 x_MLOAD_0 2)))
 (let (($x9254 (= (stack_t x_0 x_1 x_2 x_3 x_MLOAD_0 2 (bvadd (_ bv62 6) ?x4056)) (stack_t x_0 x_1 x_2 x_3 x_MLOAD_0 1 (bvadd (_ bv62 6) ?x4023)))))
 (let (($x5100 (= (stack_t x_0 x_1 x_2 x_3 x_MLOAD_0 2 (bvadd (_ bv61 6) ?x4056)) (stack_t x_0 x_1 x_2 x_3 x_MLOAD_0 1 (bvadd (_ bv61 6) ?x4023)))))
 (let ((?x1224 (bvadd (_ bv63 6) ?x4023)))
 (let ((?x1752 (stack_t x_0 x_1 x_2 x_3 x_MLOAD_0 1 ?x1224)))
 (let (($x3854 (forall ((w (_ BitVec 256)) )(let ((?x3809 (storage_t x_0 x_1 x_2 x_3 x_MLOAD_0 0 w)))
 (let ((?x9696 (storage_t x_0 x_1 x_2 x_3 x_MLOAD_0 1 w)))
 (= ?x9696 ?x3809))))
 ))
 (let (($x3918 (forall ((n (_ BitVec 6)) )(let ((?x3247 (stack_t x_0 x_1 x_2 x_3 x_MLOAD_0 0 n)))
 (let ((?x5563 (stack_t x_0 x_1 x_2 x_3 x_MLOAD_0 1 n)))
 (or (bvsle (bvadd (_ bv63 6) (sc_t 0)) n) (= ?x5563 ?x3247)))))
 ))
 (let (($x11665 (= ?x4023 ?x63)))
 (let ((?x9317 (f_MLOAD x_0 x_1 x_2 x_3 x_MLOAD_0 (stack_t x_0 x_1 x_2 x_3 x_MLOAD_0 0 (bvadd (_ bv63 6) ?x63)))))
 (let (($x10656 (= $x772 (or (exc_halt_s 5) (not (bvsle (_ bv0 6) (bvadd (_ bv63 6) (sc_s 5))))))))
 (let (($x8532 (forall ((w (_ BitVec 256)) )(let ((?x6632 (storage_s x_0 x_1 x_2 x_3 x_MLOAD_0 5 w)))
 (let ((?x4188 (storage_s x_0 x_1 x_2 x_3 x_MLOAD_0 6 w)))
 (= ?x4188 ?x6632))))
 ))
 (let (($x5835 (forall ((n (_ BitVec 6)) )(let ((?x805 (sc_s 5)))
 (let ((?x5075 (bvadd (_ bv63 6) ?x805)))
 (let (($x11712 (bvsle ?x5075 n)))
 (let ((?x6478 (stack_s x_0 x_1 x_2 x_3 x_MLOAD_0 5 n)))
 (let ((?x2426 (stack_s x_0 x_1 x_2 x_3 x_MLOAD_0 6 n)))
 (or (= ?x2426 ?x6478) $x11712)))))))
 ))
 (let ((?x805 (sc_s 5)))
 (let ((?x5075 (bvadd (_ bv63 6) ?x805)))
 (let (($x2754 (= ?x926 ?x5075)))
 (let (($x1683 (= (used_gas_s x_0 x_1 x_2 x_3 x_MLOAD_0 6) (+ 2 (used_gas_s x_0 x_1 x_2 x_3 x_MLOAD_0 5)))))
 (let (($x3979 (exc_halt_s 5)))
 (let (($x1719 (= $x3979 (or (exc_halt_s 4) (not (bvsle (_ bv0 6) (bvadd (_ bv60 6) (sc_s 4))))))))
 (let (($x10245 (forall ((w (_ BitVec 256)) )(let ((?x8605 (storage_s x_0 x_1 x_2 x_3 x_MLOAD_0 4 w)))
 (let ((?x6632 (storage_s x_0 x_1 x_2 x_3 x_MLOAD_0 5 w)))
 (= ?x6632 ?x8605))))
 ))
 (let (($x1699 (forall ((n (_ BitVec 6)) )(let ((?x1874 (stack_s x_0 x_1 x_2 x_3 x_MLOAD_0 4 n)))
 (let ((?x6478 (stack_s x_0 x_1 x_2 x_3 x_MLOAD_0 5 n)))
 (let ((?x4305 (sc_s 4)))
 (let ((?x9895 (bvadd (_ bv60 6) ?x4305)))
 (let (($x1293 (bvsle ?x9895 n)))
 (or $x1293 (= ?x6478 ?x1874))))))))
 ))
 (let ((?x4305 (sc_s 4)))
 (let (($x10423 (= ?x805 ?x4305)))
 (let ((?x3394 (used_gas_s x_0 x_1 x_2 x_3 x_MLOAD_0 5)))
 (let (($x10333 (= (stack_s x_0 x_1 x_2 x_3 x_MLOAD_0 5 (bvadd (_ bv62 6) ?x805)) (stack_s x_0 x_1 x_2 x_3 x_MLOAD_0 4 (bvadd (_ bv62 6) ?x4305)))))
 (let (($x3175 (= (stack_s x_0 x_1 x_2 x_3 x_MLOAD_0 5 (bvadd (_ bv61 6) ?x805)) (stack_s x_0 x_1 x_2 x_3 x_MLOAD_0 4 (bvadd (_ bv61 6) ?x4305)))))
 (let (($x1876 (= (stack_s x_0 x_1 x_2 x_3 x_MLOAD_0 5 (bvadd (_ bv60 6) ?x805)) (stack_s x_0 x_1 x_2 x_3 x_MLOAD_0 4 (bvadd (_ bv63 6) ?x4305)))))
 (let (($x4161 (= (stack_s x_0 x_1 x_2 x_3 x_MLOAD_0 5 ?x5075) (stack_s x_0 x_1 x_2 x_3 x_MLOAD_0 4 (bvadd (_ bv60 6) ?x4305)))))
 (let (($x64 (exc_halt_s 4)))
 (let (($x2205 (= $x64 (or (exc_halt_s 3) (not (bvsle (_ bv0 6) (bvadd (_ bv63 6) (sc_s 3))))))))
 (let (($x4591 (forall ((w (_ BitVec 256)) )(let ((?x3206 (storage_s x_0 x_1 x_2 x_3 x_MLOAD_0 3 w)))
 (let ((?x8605 (storage_s x_0 x_1 x_2 x_3 x_MLOAD_0 4 w)))
 (= ?x8605 ?x3206))))
 ))
 (let (($x4853 (forall ((n (_ BitVec 6)) )(let ((?x9588 (stack_s x_0 x_1 x_2 x_3 x_MLOAD_0 3 n)))
 (let ((?x1874 (stack_s x_0 x_1 x_2 x_3 x_MLOAD_0 4 n)))
 (let ((?x275 (sc_s 3)))
 (let ((?x7846 (bvadd (_ bv63 6) ?x275)))
 (let (($x3202 (bvsle ?x7846 n)))
 (or $x3202 (= ?x1874 ?x9588))))))))
 ))
 (let ((?x275 (sc_s 3)))
 (let ((?x7846 (bvadd (_ bv63 6) ?x275)))
 (let (($x7554 (= ?x4305 ?x7846)))
 (let ((?x10030 (used_gas_s x_0 x_1 x_2 x_3 x_MLOAD_0 4)))
 (let (($x292 (exc_halt_s 3)))
 (let (($x7717 (= $x292 (or (exc_halt_s 2) (not (bvsle (_ bv0 6) (bvadd (_ bv62 6) (sc_s 2))))))))
 (let (($x11607 (forall ((w (_ BitVec 256)) )(let ((?x10269 (storage_s x_0 x_1 x_2 x_3 x_MLOAD_0 2 w)))
 (let ((?x3206 (storage_s x_0 x_1 x_2 x_3 x_MLOAD_0 3 w)))
 (= ?x3206 ?x10269))))
 ))
 (let (($x4645 (forall ((n (_ BitVec 6)) )(let ((?x3677 (stack_s x_0 x_1 x_2 x_3 x_MLOAD_0 2 n)))
 (let ((?x9588 (stack_s x_0 x_1 x_2 x_3 x_MLOAD_0 3 n)))
 (or (bvsle (bvadd (_ bv62 6) (sc_s 2)) n) (= ?x9588 ?x3677)))))
 ))
 (let ((?x218 (sc_s 2)))
 (let (($x1939 (= ?x275 ?x218)))
 (let ((?x8840 (used_gas_s x_0 x_1 x_2 x_3 x_MLOAD_0 3)))
 (let ((?x9274 (bvadd (_ bv63 6) ?x218)))
 (let ((?x6442 (stack_s x_0 x_1 x_2 x_3 x_MLOAD_0 2 ?x9274)))
 (let (($x326 (= (stack_s x_0 x_1 x_2 x_3 x_MLOAD_0 3 ?x7846) (stack_s x_0 x_1 x_2 x_3 x_MLOAD_0 2 (bvadd (_ bv62 6) ?x218)))))
 (let (($x247 (exc_halt_s 2)))
 (let (($x9953 (= $x247 (or (exc_halt_s 1) (not (bvsle (_ bv0 6) (bvadd (_ bv63 6) (sc_s 1))))))))
 (let (($x3038 (forall ((w (_ BitVec 256)) )(let ((?x422 (storage_s x_0 x_1 x_2 x_3 x_MLOAD_0 1 w)))
 (let ((?x10269 (storage_s x_0 x_1 x_2 x_3 x_MLOAD_0 2 w)))
 (= ?x10269 ?x422))))
 ))
 (let (($x7608 (forall ((n (_ BitVec 6)) )(let ((?x1242 (stack_s x_0 x_1 x_2 x_3 x_MLOAD_0 1 n)))
 (let ((?x3677 (stack_s x_0 x_1 x_2 x_3 x_MLOAD_0 2 n)))
 (let ((?x154 (sc_s 1)))
 (let ((?x2046 (bvadd (_ bv63 6) ?x154)))
 (let (($x3117 (bvsle ?x2046 n)))
 (or $x3117 (= ?x3677 ?x1242))))))))
 ))
 (let ((?x154 (sc_s 1)))
 (let (($x4713 (= ?x218 ?x154)))
 (let ((?x6246 (used_gas_s x_0 x_1 x_2 x_3 x_MLOAD_0 2)))
 (let ((?x2046 (bvadd (_ bv63 6) ?x154)))
 (let ((?x7655 (stack_s x_0 x_1 x_2 x_3 x_MLOAD_0 1 ?x2046)))
 (let (($x7701 (not (= ((_ extract 6 6) (bvadd (_ bv1 7) (concat (_ bv0 1) ?x72))) (_ bv0 1)))))
 (let (($x189 (exc_halt_s 1)))
 (let (($x4298 (= $x189 (or $x57 (not (bvsle (_ bv0 6) (bvadd (_ bv63 6) ?x72))) $x7701))))
 (let (($x11560 (forall ((w (_ BitVec 256)) )(let ((?x20 (storage_s x_0 x_1 x_2 x_3 x_MLOAD_0 0 w)))
 (let ((?x422 (storage_s x_0 x_1 x_2 x_3 x_MLOAD_0 1 w)))
 (= ?x422 ?x20))))
 ))
 (let (($x9115 (forall ((n (_ BitVec 6)) )(let ((?x72 (sc_s 0)))
 (let ((?x2305 (bvadd (_ bv63 6) ?x72)))
 (let (($x8755 (bvsle ?x2305 n)))
 (let ((?x1681 (stack_s x_0 x_1 x_2 x_3 x_MLOAD_0 0 n)))
 (let ((?x1242 (stack_s x_0 x_1 x_2 x_3 x_MLOAD_0 1 n)))
 (or (= ?x1242 ?x1681) $x8755)))))))
 ))
 (let (($x7777 (= ?x154 (bvadd (_ bv1 6) ?x72))))
 (let ((?x2305 (bvadd (_ bv63 6) ?x72)))
 (let ((?x8036 (stack_s x_0 x_1 x_2 x_3 x_MLOAD_0 0 ?x2305)))
 (let (($x11106 (forall ((w0 (_ BitVec 256)) )(let (($x6765 (= (stack_s x_0 x_1 x_2 x_3 x_MLOAD_0 1 (bvadd (_ bv63 6) (sc_s 1))) w0)))
 (let ((?x4538 (f_MLOAD x_0 x_1 x_2 x_3 x_MLOAD_0 w0)))
 (= ?x4538 (ite $x6765 x_MLOAD_0 (_ bv0 256))))))
 ))
 (let (($x3803 (forall ((w (_ BitVec 256)) )(let ((?x20 (storage_s x_0 x_1 x_2 x_3 x_MLOAD_0 0 w)))
 (= ?x20 (_ bv0 256))))
 ))
 (let (($x3786 (= ?x10033 0)))
 (let (($x5326 (not $x57)))
 (let (($x5341 (= (stack_s x_0 x_1 x_2 x_3 x_MLOAD_0 0 (_ bv3 6)) x_3)))
 (let (($x9939 (= (stack_s x_0 x_1 x_2 x_3 x_MLOAD_0 0 (_ bv2 6)) x_2)))
 (let (($x9102 (= (stack_s x_0 x_1 x_2 x_3 x_MLOAD_0 0 (_ bv1 6)) x_1)))
 (let (($x8390 (= (stack_s x_0 x_1 x_2 x_3 x_MLOAD_0 0 (_ bv0 6)) x_0)))
 (let (($x2651 (= ?x72 (_ bv4 6))))
 (and $x2651 $x8390 $x9102 $x9939 $x5341 $x5326 $x3786 $x3803 $x11106 (= ?x7655 ?x8036) (= (stack_s x_0 x_1 x_2 x_3 x_MLOAD_0 1 ?x2305) ?x8036) (= (used_gas_s x_0 x_1 x_2 x_3 x_MLOAD_0 1) (+ 3 ?x10033)) $x7777 $x9115 $x11560 $x4298 (= ?x6442 (f_MLOAD x_0 x_1 x_2 x_3 x_MLOAD_0 ?x7655)) (= ?x6246 (+ 3 (used_gas_s x_0 x_1 x_2 x_3 x_MLOAD_0 1))) $x4713 $x7608 $x3038 $x9953 $x326 (= (stack_s x_0 x_1 x_2 x_3 x_MLOAD_0 3 (bvadd (_ bv62 6) ?x275)) ?x6442) (= ?x8840 (+ 3 ?x6246)) $x1939 $x4645 $x11607 $x7717 (= ?x10030 (+ 2 ?x8840)) $x7554 $x4853 $x4591 $x2205 $x4161 $x1876 $x3175 $x10333 (= ?x3394 (+ 3 ?x10030)) $x10423 $x1699 $x10245 $x1719 $x1683 $x2754 $x5835 $x8532 $x10656 (= ?x1752 ?x9317) (= (used_gas_t x_0 x_1 x_2 x_3 x_MLOAD_0 1) (+ 3 ?x198)) $x11665 $x3918 $x3854 (= (exc_halt_t 1) (or $x56 (not (bvsle (_ bv0 6) (bvadd (_ bv63 6) ?x63))))) (= ?x6705 (stack_t x_0 x_1 x_2 x_3 x_MLOAD_0 1 (bvadd (_ bv60 6) ?x4023))) (= (stack_t x_0 x_1 x_2 x_3 x_MLOAD_0 2 (bvadd (_ bv60 6) ?x4056)) ?x1752) $x5100 $x9254 (= ?x9485 (+ 3 (used_gas_t x_0 x_1 x_2 x_3 x_MLOAD_0 1))) $x1388 $x7376 $x4043 $x9042 (= (stack_t x_0 x_1 x_2 x_3 x_MLOAD_0 3 ?x9862) (bvnot ?x6705)) (= ?x3589 (+ 3 ?x9485)) (= ?x9893 ?x4056) $x11028 $x11399 $x6168 $x40 $x1435 $x1266 $x6419 $x5216 $x73 $x2552 $x58 $x574 $x4054 (not (and $x1568 $x6801 $x9929 $x4148)))))))))))))))))))))))))))))))))))))))))))))))))))))))))))))))))))))))))))))))))))))))))))))))))))))))))))))))))))
 )
(check-sat)
(get-proof)
